176
0 4 150 84 25 119 48 99 122 136 
72 142 166 60 32 147 144 120 100 160 
174 88 89 112 28 132 21 65 141 77 
11 131 69 93 13 169 127 92 121 107 
29 51 113 67 14 103 97 163 41 5 
44 79 137 38 33 53 18 159 12 1 
85 50 56 40 162 152 20 26 3 23 
61 149 39 90 171 43 16 126 95 75 
102 19 157 172 134 156 71 83 87 161 
124 146 118 27 108 2 9 63 47 175 
81 123 173 170 68 116 30 15 70 57 
148 165 133 98 155 37 66 135 73 114 
91 82 31 158 104 55 8 105 129 94 
62 58 106 78 101 74 76 46 52 110 
130 96 145 115 164 143 36 111 45 59 
139 109 138 54 24 49 35 153 42 22 
80 64 125 168 167 86 10 17 151 117 
6 34 140 128 7 154 
